p cnf 952
-16 -296
-17 -299
-18 -302
-19 -305
-20 -308
-21 -311
-22 -314
-23 -317
-24 -320
-25 -323
-26 -326
-27 -329
-28 -332
-29 -335
-30 -338
-31 339
-32 340
-33 341
-34 342
-35 343
-36 344
-37 -17
-37 -18
17 18 37
-38 -19
-38 -20
19 20 38
-39 -21
-39 -22
21 22 39
-40 -23
-40 -24
23 24 40
-41 -25
-41 -26
25 26 41
-42 -27
-42 -28
27 28 42
-43 -29
-43 -30
29 30 43
-44 -31
-44 -32
31 32 44
-45 -33
-45 -34
33 34 45
-46 -35
-46 -36
35 36 46
-47 37
-47 38
-37 -38 47
-48 39
-48 40
-39 -40 48
-49 41
-49 42
-41 -42 49
-50 43
-50 44
-43 -44 50
-51 45
-51 46
-45 -46 51
-52 47
-52 48
-47 -48 52
-53 49
-53 50
-49 -50 53
-54 52
-54 53
-52 -53 54
-55 51
-55 54
-51 -54 55
-56 -16
-56 17
16 -17 56
-57 16
-57 -17
-16 17 57
-58 -56
-58 -57
56 57 58
-59 16
-59 17
-16 -17 59
-60 -16
-60 -58
16 58 60
-61 16
-61 58
-16 -58 61
-62 -60
-62 -61
60 61 62
-63 16
-63 -58
-16 58 63
-64 -59
-64 -63
59 63 64
-65 -17
-65 18
17 -18 65
-66 17
-66 -18
-17 18 66
-67 -65
-67 -66
65 66 67
-68 17
-68 18
-17 -18 68
-69 64
-69 -67
-64 67 69
-70 -64
-70 67
64 -67 70
-71 -69
-71 -70
69 70 71
-72 -64
-72 -67
64 67 72
-73 -68
-73 -72
68 72 73
-74 -18
-74 19
18 -19 74
-75 18
-75 -19
-18 19 75
-76 -74
-76 -75
74 75 76
-77 18
-77 19
-18 -19 77
-78 73
-78 -76
-73 76 78
-79 -73
-79 76
73 -76 79
-80 -78
-80 -79
78 79 80
-81 -73
-81 -76
73 76 81
-82 -77
-82 -81
77 81 82
-83 -19
-83 20
19 -20 83
-84 19
-84 -20
-19 20 84
-85 -83
-85 -84
83 84 85
-86 19
-86 20
-19 -20 86
-87 82
-87 -85
-82 85 87
-88 -82
-88 85
82 -85 88
-89 -87
-89 -88
87 88 89
-90 -82
-90 -85
82 85 90
-91 -86
-91 -90
86 90 91
-92 -20
-92 21
20 -21 92
-93 20
-93 -21
-20 21 93
-94 -92
-94 -93
92 93 94
-95 20
-95 21
-20 -21 95
-96 91
-96 -94
-91 94 96
-97 -91
-97 94
91 -94 97
-98 -96
-98 -97
96 97 98
-99 -91
-99 -94
91 94 99
-100 -95
-100 -99
95 99 100
-101 -21
-101 22
21 -22 101
-102 21
-102 -22
-21 22 102
-103 -101
-103 -102
101 102 103
-104 21
-104 22
-21 -22 104
-105 100
-105 -103
-100 103 105
-106 -100
-106 103
100 -103 106
-107 -105
-107 -106
105 106 107
-108 -100
-108 -103
100 103 108
-109 -104
-109 -108
104 108 109
-110 -22
-110 23
22 -23 110
-111 22
-111 -23
-22 23 111
-112 -110
-112 -111
110 111 112
-113 22
-113 23
-22 -23 113
-114 109
-114 -112
-109 112 114
-115 -109
-115 112
109 -112 115
-116 -114
-116 -115
114 115 116
-117 -109
-117 -112
109 112 117
-118 -113
-118 -117
113 117 118
-119 -23
-119 24
23 -24 119
-120 23
-120 -24
-23 24 120
-121 -119
-121 -120
119 120 121
-122 23
-122 24
-23 -24 122
-123 118
-123 -121
-118 121 123
-124 -118
-124 121
118 -121 124
-125 -123
-125 -124
123 124 125
-126 -118
-126 -121
118 121 126
-127 -122
-127 -126
122 126 127
-128 -24
-128 25
24 -25 128
-129 24
-129 -25
-24 25 129
-130 -128
-130 -129
128 129 130
-131 24
-131 25
-24 -25 131
-132 127
-132 -130
-127 130 132
-133 -127
-133 130
127 -130 133
-134 -132
-134 -133
132 133 134
-135 -127
-135 -130
127 130 135
-136 -131
-136 -135
131 135 136
-137 -25
-137 26
25 -26 137
-138 25
-138 -26
-25 26 138
-139 -137
-139 -138
137 138 139
-140 25
-140 26
-25 -26 140
-141 136
-141 -139
-136 139 141
-142 -136
-142 139
136 -139 142
-143 -141
-143 -142
141 142 143
-144 -136
-144 -139
136 139 144
-145 -140
-145 -144
140 144 145
-146 -26
-146 27
26 -27 146
-147 26
-147 -27
-26 27 147
-148 -146
-148 -147
146 147 148
-149 26
-149 27
-26 -27 149
-150 145
-150 -148
-145 148 150
-151 -145
-151 148
145 -148 151
-152 -150
-152 -151
150 151 152
-153 -145
-153 -148
145 148 153
-154 -149
-154 -153
149 153 154
-155 -27
-155 28
27 -28 155
-156 27
-156 -28
-27 28 156
-157 -155
-157 -156
155 156 157
-158 27
-158 28
-27 -28 158
-159 154
-159 -157
-154 157 159
-160 -154
-160 157
154 -157 160
-161 -159
-161 -160
159 160 161
-162 -154
-162 -157
154 157 162
-163 -158
-163 -162
158 162 163
-164 -28
-164 29
28 -29 164
-165 28
-165 -29
-28 29 165
-166 -164
-166 -165
164 165 166
-167 28
-167 29
-28 -29 167
-168 163
-168 -166
-163 166 168
-169 -163
-169 166
163 -166 169
-170 -168
-170 -169
168 169 170
-171 -163
-171 -166
163 166 171
-172 -167
-172 -171
167 171 172
-173 -29
-173 30
29 -30 173
-174 29
-174 -30
-29 30 174
-175 -173
-175 -174
173 174 175
-176 29
-176 30
-29 -30 176
-177 172
-177 -175
-172 175 177
-178 -172
-178 175
172 -175 178
-179 -177
-179 -178
177 178 179
-180 -172
-180 -175
172 175 180
-181 -176
-181 -180
176 180 181
-182 -30
-182 31
30 -31 182
-183 30
-183 -31
-30 31 183
-184 -182
-184 -183
182 183 184
-185 30
-185 31
-30 -31 185
-186 181
-186 -184
-181 184 186
-187 -181
-187 184
181 -184 187
-188 -186
-188 -187
186 187 188
-189 -181
-189 -184
181 184 189
-190 -185
-190 -189
185 189 190
-191 -31
-191 32
31 -32 191
-192 31
-192 -32
-31 32 192
-193 -191
-193 -192
191 192 193
-194 31
-194 32
-31 -32 194
-195 190
-195 -193
-190 193 195
-196 -190
-196 193
190 -193 196
-197 -195
-197 -196
195 196 197
-198 -190
-198 -193
190 193 198
-199 -194
-199 -198
194 198 199
-200 -32
-200 33
32 -33 200
-201 32
-201 -33
-32 33 201
-202 -200
-202 -201
200 201 202
-203 32
-203 33
-32 -33 203
-204 199
-204 -202
-199 202 204
-205 -199
-205 202
199 -202 205
-206 -204
-206 -205
204 205 206
-207 -199
-207 -202
199 202 207
-208 -203
-208 -207
203 207 208
-209 -33
-209 34
33 -34 209
-210 33
-210 -34
-33 34 210
-211 -209
-211 -210
209 210 211
-212 33
-212 34
-33 -34 212
-213 208
-213 -211
-208 211 213
-214 -208
-214 211
208 -211 214
-215 -213
-215 -214
213 214 215
-216 -208
-216 -211
208 211 216
-217 -212
-217 -216
212 216 217
-218 -34
-218 35
34 -35 218
-219 34
-219 -35
-34 35 219
-220 -218
-220 -219
218 219 220
-221 34
-221 35
-34 -35 221
-222 217
-222 -220
-217 220 222
-223 -217
-223 220
217 -220 223
-224 -222
-224 -223
222 223 224
-225 -217
-225 -220
217 220 225
-226 -221
-226 -225
221 225 226
-227 -35
-227 36
35 -36 227
-228 35
-228 -36
-35 36 228
-229 -227
-229 -228
227 228 229
-230 35
-230 36
-35 -36 230
-231 226
-231 -229
-226 229 231
-232 -226
-232 229
226 -229 232
-233 -231
-233 -232
231 232 233
-234 -226
-234 -229
226 229 234
-235 -230
-235 -234
230 234 235
-236 16
-236 -62
-16 62 236
-237 -16
-237 18
16 -18 237
-238 -236
-238 -237
236 237 238
-239 16
-239 -71
-16 71 239
-240 -16
-240 19
16 -19 240
-241 -239
-241 -240
239 240 241
-242 16
-242 -80
-16 80 242
-243 -16
-243 20
16 -20 243
-244 -242
-244 -243
242 243 244
-245 16
-245 -89
-16 89 245
-246 -16
-246 21
16 -21 246
-247 -245
-247 -246
245 246 247
-248 16
-248 -98
-16 98 248
-249 -16
-249 22
16 -22 249
-250 -248
-250 -249
248 249 250
-251 16
-251 -107
-16 107 251
-252 -16
-252 23
16 -23 252
-253 -251
-253 -252
251 252 253
-254 16
-254 -116
-16 116 254
-255 -16
-255 24
16 -24 255
-256 -254
-256 -255
254 255 256
-257 16
-257 -125
-16 125 257
-258 -16
-258 25
16 -25 258
-259 -257
-259 -258
257 258 259
-260 16
-260 -134
-16 134 260
-261 -16
-261 26
16 -26 261
-262 -260
-262 -261
260 261 262
-263 16
-263 -143
-16 143 263
-264 -16
-264 27
16 -27 264
-265 -263
-265 -264
263 264 265
-266 16
-266 -152
-16 152 266
-267 -16
-267 28
16 -28 267
-268 -266
-268 -267
266 267 268
-269 16
-269 -161
-16 161 269
-270 -16
-270 29
16 -29 270
-271 -269
-271 -270
269 270 271
-272 16
-272 -170
-16 170 272
-273 -16
-273 30
16 -30 273
-274 -272
-274 -273
272 273 274
-275 16
-275 -179
-16 179 275
-276 -16
-276 31
16 -31 276
-277 -275
-277 -276
275 276 277
-278 16
-278 -188
-16 188 278
-279 -16
-279 32
16 -32 279
-280 -278
-280 -279
278 279 280
-281 16
-281 -197
-16 197 281
-282 -16
-282 33
16 -33 282
-283 -281
-283 -282
281 282 283
-284 16
-284 -206
-16 206 284
-285 -16
-285 34
16 -34 285
-286 -284
-286 -285
284 285 286
-287 16
-287 -215
-16 215 287
-288 -16
-288 35
16 -35 288
-289 -287
-289 -288
287 288 289
-290 16
-290 -224
-16 224 290
-291 -16
-291 36
16 -36 291
-292 -290
-292 -291
290 291 292
-293 16
-293 -233
-16 233 293
-294 1
-294 55
-1 -55 294
-295 -55
-295 56
55 -56 295
-296 -294
-296 -295
294 295 296
-297 2
-297 55
-2 -55 297
-298 -55
-298 -238
55 238 298
-299 -297
-299 -298
297 298 299
-300 3
-300 55
-3 -55 300
-301 -55
-301 -241
55 241 301
-302 -300
-302 -301
300 301 302
-303 4
-303 55
-4 -55 303
-304 -55
-304 -244
55 244 304
-305 -303
-305 -304
303 304 305
-306 5
-306 55
-5 -55 306
-307 -55
-307 -247
55 247 307
-308 -306
-308 -307
306 307 308
-309 6
-309 55
-6 -55 309
-310 -55
-310 -250
55 250 310
-311 -309
-311 -310
309 310 311
-312 7
-312 55
-7 -55 312
-313 -55
-313 -253
55 253 313
-314 -312
-314 -313
312 313 314
-315 8
-315 55
-8 -55 315
-316 -55
-316 -256
55 256 316
-317 -315
-317 -316
315 316 317
-318 9
-318 55
-9 -55 318
-319 -55
-319 -259
55 259 319
-320 -318
-320 -319
318 319 320
-321 10
-321 55
-10 -55 321
-322 -55
-322 -262
55 262 322
-323 -321
-323 -322
321 322 323
-324 11
-324 55
-11 -55 324
-325 -55
-325 -265
55 265 325
-326 -324
-326 -325
324 325 326
-327 12
-327 55
-12 -55 327
-328 -55
-328 -268
55 268 328
-329 -327
-329 -328
327 328 329
-330 13
-330 55
-13 -55 330
-331 -55
-331 -271
55 271 331
-332 -330
-332 -331
330 331 332
-333 14
-333 55
-14 -55 333
-334 -55
-334 -274
55 274 334
-335 -333
-335 -334
333 334 335
-336 15
-336 55
-15 -55 336
-337 -55
-337 -277
55 277 337
-338 -336
-338 -337
336 337 338
-339 -55
-339 -280
55 280 339
-340 -55
-340 -283
55 283 340
-341 -55
-341 -286
55 286 341
-342 -55
-342 -289
55 289 342
-343 -55
-343 -292
55 292 343
-344 -55
-344 293
55 -293 344
-345 -36
-345 235
36 -235 345
-346 16
-346 -345
-16 345 346
346
